NAME          
ROWS
 N  OBJ
 L  c2
 L  c3
 L  c4
 L  c5
 L  c6
 G  c1
COLUMNS
    ss[1]     c1        1
    ss[1]     OBJ       1000
    s[1]      c2        1
    s[1]      OBJ       -1000
    s[2]      c3        1
    s[2]      OBJ       -1000
    s[3]      c4        1
    s[3]      OBJ       -1000
    s[4]      c5        1
    s[4]      OBJ       -1000
    s[5]      c6        1
    s[5]      OBJ       -1000
    MARKER    'MARKER'                 'INTORG'
    x[1]      c2        502
    x[1]      c3        430
    x[1]      c4        828
    x[1]      c5        839
    x[1]      c6        949
    x[1]      c1        556
    x[1]      OBJ       -510
    x[2]      c2        66
    x[2]      c3        323
    x[2]      c4        553
    x[2]      c5        674
    x[2]      c6        517
    x[2]      c1        125
    x[2]      OBJ       -617
    x[3]      c2        229
    x[3]      c3        712
    x[3]      c4        337
    x[3]      c5        396
    x[3]      c6        55
    x[3]      c1        736
    x[3]      OBJ       123
    x[4]      c2        725
    x[4]      c3        645
    x[4]      c4        862
    x[4]      c5        128
    x[4]      c6        290
    x[4]      c1        557
    x[4]      OBJ       -174
    x[5]      c2        461
    x[5]      c3        833
    x[5]      c4        225
    x[5]      c5        569
    x[5]      c6        784
    x[5]      c1        301
    x[5]      OBJ       -334
    x[6]      c2        533
    x[6]      c3        762
    x[6]      c4        41
    x[6]      c5        631
    x[6]      c6        129
    x[6]      c1        6
    x[6]      OBJ       -845
    x[7]      c2        658
    x[7]      c3        352
    x[7]      c4        933
    x[7]      c5        725
    x[7]      c6        21
    x[7]      c1        111
    x[7]      OBJ       -432
    x[8]      c2        340
    x[8]      c3        411
    x[8]      c4        845
    x[8]      c5        552
    x[8]      c6        599
    x[8]      c1        16
    x[8]      OBJ       -770
    x[9]      c2        95
    x[9]      c3        715
    x[9]      c4        980
    x[9]      c5        365
    x[9]      c6        792
    x[9]      c1        704
    x[9]      OBJ       -250
    x[10]     c2        501
    x[10]     c3        141
    x[10]     c4        433
    x[10]     c5        292
    x[10]     c6        529
    x[10]     c1        952
    x[10]     OBJ       181
    x[11]     c2        697
    x[11]     c3        887
    x[11]     c4        139
    x[11]     c5        649
    x[11]     c6        46
    x[11]     c1        408
    x[11]     OBJ       -329
    x[12]     c2        437
    x[12]     c3        331
    x[12]     c4        809
    x[12]     c5        177
    x[12]     c6        542
    x[12]     c1        492
    x[12]     OBJ       -133
    x[13]     c2        172
    x[13]     c3        388
    x[13]     c4        174
    x[13]     c5        372
    x[13]     c6        766
    x[13]     c1        163
    x[13]     OBJ       -550
    x[14]     c2        549
    x[14]     c3        546
    x[14]     c4        769
    x[14]     c5        75
    x[14]     c6        707
    x[14]     c1        938
    x[14]     OBJ       -43
    x[15]     c2        801
    x[15]     c3        817
    x[15]     c4        819
    x[15]     c5        76
    x[15]     c6        864
    x[15]     c1        315
    x[15]     OBJ       -801
    x[16]     c2        408
    x[16]     c3        813
    x[16]     c4        641
    x[16]     c5        614
    x[16]     c6        166
    x[16]     c1        949
    x[16]     OBJ       96
    x[17]     c2        866
    x[17]     c3        541
    x[17]     c4        460
    x[17]     c5        205
    x[17]     c6        878
    x[17]     c1        670
    x[17]     OBJ       -13
    x[18]     c2        475
    x[18]     c3        144
    x[18]     c4        906
    x[18]     c5        33
    x[18]     c6        808
    x[18]     c1        1000
    x[18]     OBJ       80
    x[19]     c2        253
    x[19]     c3        300
    x[19]     c4        816
    x[19]     c5        644
    x[19]     c6        61
    x[19]     c1        457
    x[19]     OBJ       -376
    x[20]     c2        467
    x[20]     c3        311
    x[20]     c4        998
    x[20]     c5        660
    x[20]     c6        475
    x[20]     c1        816
    x[20]     OBJ       -110
    x[21]     c2        809
    x[21]     c3        264
    x[21]     c4        112
    x[21]     c5        996
    x[21]     c6        657
    x[21]     c1        357
    x[21]     OBJ       -568
    x[22]     c2        802
    x[22]     c3        591
    x[22]     c4        608
    x[22]     c5        517
    x[22]     c6        933
    x[22]     c1        495
    x[22]     OBJ       -644
    x[23]     c2        683
    x[23]     c3        657
    x[23]     c4        653
    x[23]     c5        905
    x[23]     c6        257
    x[23]     c1        916
    x[23]     OBJ       -1
    x[24]     c2        738
    x[24]     c3        848
    x[24]     c4        341
    x[24]     c5        989
    x[24]     c6        596
    x[24]     c1        852
    x[24]     OBJ       -228
    x[25]     c2        160
    x[25]     c3        101
    x[25]     c4        963
    x[25]     c5        284
    x[25]     c6        378
    x[25]     c1        614
    x[25]     OBJ       -142
    x[26]     c2        41
    x[26]     c3        862
    x[26]     c4        453
    x[26]     c5        498
    x[26]     c6        685
    x[26]     c1        161
    x[26]     OBJ       -610
    x[27]     c2        432
    x[27]     c3        282
    x[27]     c4        968
    x[27]     c5        332
    x[27]     c6        506
    x[27]     c1        60
    x[27]     OBJ       -837
    x[28]     c2        538
    x[28]     c3        66
    x[28]     c4        909
    x[28]     c5        589
    x[28]     c6        223
    x[28]     c1        382
    x[28]     OBJ       -455
    x[29]     c2        342
    x[29]     c3        101
    x[29]     c4        985
    x[29]     c5        842
    x[29]     c6        928
    x[29]     c1        373
    x[29]     OBJ       -580
    x[30]     c2        957
    x[30]     c3        401
    x[30]     c4        509
    x[30]     c5        337
    x[30]     c6        376
    x[30]     c1        570
    x[30]     OBJ       -270
    x[31]     c2        515
    x[31]     c3        322
    x[31]     c4        184
    x[31]     c5        656
    x[31]     c6        421
    x[31]     c1        182
    x[31]     OBJ       -369
    x[32]     c2        995
    x[32]     c3        363
    x[32]     c4        807
    x[32]     c5        185
    x[32]     c6        369
    x[32]     c1        934
    x[32]     OBJ       -35
    x[33]     c2        824
    x[33]     c3        471
    x[33]     c4        459
    x[33]     c5        834
    x[33]     c6        577
    x[33]     c1        129
    x[33]     OBJ       -597
    x[34]     c2        255
    x[34]     c3        750
    x[34]     c4        726
    x[34]     c5        128
    x[34]     c6        194
    x[34]     c1        542
    x[34]     OBJ       -364
    x[35]     c2        712
    x[35]     c3        871
    x[35]     c4        336
    x[35]     c5        291
    x[35]     c6        341
    x[35]     c1        767
    x[35]     OBJ       -59
    x[36]     c2        241
    x[36]     c3        523
    x[36]     c4        800
    x[36]     c5        789
    x[36]     c6        824
    x[36]     c1        964
    x[36]     OBJ       -6
    x[37]     c2        541
    x[37]     c3        163
    x[37]     c4        818
    x[37]     c5        702
    x[37]     c6        73
    x[37]     c1        896
    x[37]     OBJ       323
    x[38]     c2        806
    x[38]     c3        428
    x[38]     c4        779
    x[38]     c5        935
    x[38]     c6        948
    x[38]     c1        350
    x[38]     OBJ       -518
    x[39]     c2        577
    x[39]     c3        265
    x[39]     c4        1
    x[39]     c5        883
    x[39]     c6        618
    x[39]     c1        178
    x[39]     OBJ       -354
    x[40]     c2        313
    x[40]     c3        284
    x[40]     c4        656
    x[40]     c5        66
    x[40]     c6        764
    x[40]     c1        557
    x[40]     OBJ       -87
    x[41]     c2        595
    x[41]     c3        338
    x[41]     c4        344
    x[41]     c5        721
    x[41]     c6        469
    x[41]     c1        975
    x[41]     OBJ       -2
    x[42]     c2        899
    x[42]     c3        346
    x[42]     c4        556
    x[42]     c5        673
    x[42]     c6        682
    x[42]     c1        70
    x[42]     OBJ       -968
    x[43]     c2        676
    x[43]     c3        616
    x[43]     c4        177
    x[43]     c5        897
    x[43]     c6        275
    x[43]     c1        226
    x[43]     OBJ       -551
    x[44]     c2        772
    x[44]     c3        467
    x[44]     c4        736
    x[44]     c5        906
    x[44]     c6        609
    x[44]     c1        356
    x[44]     OBJ       -578
    x[45]     c2        560
    x[45]     c3        401
    x[45]     c4        263
    x[45]     c5        408
    x[45]     c6        290
    x[45]     c1        404
    x[45]     OBJ       -390
    x[46]     c2        342
    x[46]     c3        464
    x[46]     c4        304
    x[46]     c5        645
    x[46]     c6        873
    x[46]     c1        79
    x[46]     OBJ       -757
    x[47]     c2        791
    x[47]     c3        239
    x[47]     c4        542
    x[47]     c5        519
    x[47]     c6        147
    x[47]     c1        833
    x[47]     OBJ       -87
    x[48]     c2        253
    x[48]     c3        712
    x[48]     c4        813
    x[48]     c5        244
    x[48]     c6        926
    x[48]     c1        616
    x[48]     OBJ       -105
    x[49]     c2        400
    x[49]     c3        866
    x[49]     c4        326
    x[49]     c5        595
    x[49]     c6        772
    x[49]     c1        575
    x[49]     OBJ       -273
    x[50]     c2        180
    x[50]     c3        129
    x[50]     c4        718
    x[50]     c5        15
    x[50]     c6        7
    x[50]     c1        987
    x[50]     OBJ       692
    x[51]     c2        60
    x[51]     c3        202
    x[51]     c4        601
    x[51]     c5        464
    x[51]     c6        860
    x[51]     c1        340
    x[51]     OBJ       -388
    x[52]     c2        722
    x[52]     c3        710
    x[52]     c4        591
    x[52]     c5        93
    x[52]     c6        963
    x[52]     c1        794
    x[52]     OBJ       -47
    x[53]     c2        945
    x[53]     c3        353
    x[53]     c4        216
    x[53]     c5        254
    x[53]     c6        543
    x[53]     c1        321
    x[53]     OBJ       -217
    x[54]     c2        164
    x[54]     c3        715
    x[54]     c4        918
    x[54]     c5        627
    x[54]     c6        119
    x[54]     c1        337
    x[54]     OBJ       -561
    x[55]     c2        116
    x[55]     c3        176
    x[55]     c4        394
    x[55]     c5        284
    x[55]     c6        95
    x[55]     c1        580
    x[55]     OBJ       308
    x[56]     c2        429
    x[56]     c3        395
    x[56]     c4        512
    x[56]     c5        436
    x[56]     c6        764
    x[56]     c1        920
    x[56]     OBJ       406
    x[57]     c2        856
    x[57]     c3        71
    x[57]     c4        378
    x[57]     c5        787
    x[57]     c6        560
    x[57]     c1        425
    x[57]     OBJ       -328
    x[58]     c2        102
    x[58]     c3        644
    x[58]     c4        970
    x[58]     c5        50
    x[58]     c6        563
    x[58]     c1        170
    x[58]     OBJ       -567
    x[59]     c2        573
    x[59]     c3        440
    x[59]     c4        751
    x[59]     c5        224
    x[59]     c6        959
    x[59]     c1        955
    x[59]     OBJ       -94
    x[60]     c2        623
    x[60]     c3        247
    x[60]     c4        957
    x[60]     c5        220
    x[60]     c6        743
    x[60]     c1        581
    x[60]     OBJ       -203
    x[61]     c2        633
    x[61]     c3        616
    x[61]     c4        639
    x[61]     c5        459
    x[61]     c6        57
    x[61]     c1        739
    x[61]     OBJ       -60
    x[62]     c2        59
    x[62]     c3        68
    x[62]     c4        131
    x[62]     c5        124
    x[62]     c6        641
    x[62]     c1        622
    x[63]     c2        235
    x[63]     c3        598
    x[63]     c4        116
    x[63]     c5        607
    x[63]     c6        48
    x[63]     c1        473
    x[63]     OBJ       -21
    x[64]     c2        737
    x[64]     c3        12
    x[64]     c4        494
    x[64]     c5        64
    x[64]     c6        63
    x[64]     c1        789
    x[64]     OBJ       378
    x[65]     c2        376
    x[65]     c3        421
    x[65]     c4        662
    x[65]     c5        889
    x[65]     c6        87
    x[65]     c1        946
    x[65]     OBJ       -25
    x[66]     c2        370
    x[66]     c3        83
    x[66]     c4        166
    x[66]     c5        172
    x[66]     c6        145
    x[66]     c1        499
    x[66]     OBJ       -35
    x[67]     c2        528
    x[67]     c3        938
    x[67]     c4        345
    x[67]     c5        115
    x[67]     c6        338
    x[67]     c1        666
    x[67]     OBJ       -204
    x[68]     c2        546
    x[68]     c3        602
    x[68]     c4        725
    x[68]     c5        904
    x[68]     c6        463
    x[68]     c1        546
    x[68]     OBJ       -205
    x[69]     c2        699
    x[69]     c3        793
    x[69]     c4        135
    x[69]     c5        924
    x[69]     c6        947
    x[69]     c1        630
    x[69]     OBJ       -112
    x[70]     c2        352
    x[70]     c3        745
    x[70]     c4        843
    x[70]     c5        169
    x[70]     c6        611
    x[70]     c1        997
    x[70]     OBJ       322
    x[71]     c2        523
    x[71]     c3        924
    x[71]     c4        878
    x[71]     c5        841
    x[71]     c6        494
    x[71]     c1        462
    x[71]     OBJ       -622
    x[72]     c2        327
    x[72]     c3        535
    x[72]     c4        121
    x[72]     c5        110
    x[72]     c6        190
    x[72]     c1        750
    x[72]     OBJ       -44
    x[73]     c2        412
    x[73]     c3        20
    x[73]     c4        600
    x[73]     c5        536
    x[73]     c6        762
    x[73]     c1        841
    x[73]     OBJ       184
    x[74]     c2        869
    x[74]     c3        303
    x[74]     c4        569
    x[74]     c5        962
    x[74]     c6        851
    x[74]     c1        795
    x[74]     OBJ       -250
    x[75]     c2        841
    x[75]     c3        586
    x[75]     c4        735
    x[75]     c5        192
    x[75]     c6        717
    x[75]     c1        2
    x[75]     OBJ       -666
    x[76]     c2        758
    x[76]     c3        953
    x[76]     c4        263
    x[76]     c5        295
    x[76]     c6        908
    x[76]     c1        522
    x[76]     OBJ       -245
    x[77]     c2        320
    x[77]     c3        929
    x[77]     c4        425
    x[77]     c5        507
    x[77]     c6        758
    x[77]     c1        778
    x[77]     OBJ       -183
    x[78]     c2        230
    x[78]     c3        536
    x[78]     c4        803
    x[78]     c5        879
    x[78]     c6        714
    x[78]     c1        42
    x[78]     OBJ       -911
    x[79]     c2        6
    x[79]     c3        301
    x[79]     c4        632
    x[79]     c5        456
    x[79]     c6        123
    x[79]     c1        714
    x[79]     OBJ       90
    x[80]     c2        409
    x[80]     c3        396
    x[80]     c4        5
    x[80]     c5        433
    x[80]     c6        240
    x[80]     c1        645
    x[80]     OBJ       -23
    x[81]     c2        432
    x[81]     c3        87
    x[81]     c4        529
    x[81]     c5        865
    x[81]     c6        712
    x[81]     c1        855
    x[81]     OBJ       288
    x[82]     c2        678
    x[82]     c3        287
    x[82]     c4        609
    x[82]     c5        400
    x[82]     c6        59
    x[82]     c1        396
    x[82]     OBJ       -133
    x[83]     c2        562
    x[83]     c3        575
    x[83]     c4        328
    x[83]     c5        762
    x[83]     c6        7
    x[83]     c1        768
    x[83]     OBJ       -91
    x[84]     c2        595
    x[84]     c3        290
    x[84]     c4        647
    x[84]     c5        985
    x[84]     c6        199
    x[84]     c1        392
    x[84]     OBJ       -238
    x[85]     c2        778
    x[85]     c3        714
    x[85]     c4        575
    x[85]     c5        591
    x[85]     c6        900
    x[85]     c1        141
    x[85]     OBJ       -577
    x[86]     c2        364
    x[86]     c3        407
    x[86]     c4        510
    x[86]     c5        502
    x[86]     c6        18
    x[86]     c1        544
    x[86]     OBJ       -30
    x[87]     c2        908
    x[87]     c3        717
    x[87]     c4        413
    x[87]     c5        291
    x[87]     c6        183
    x[87]     c1        847
    x[87]     OBJ       167
    x[88]     c2        188
    x[88]     c3        189
    x[88]     c4        541
    x[88]     c5        601
    x[88]     c6        324
    x[88]     c1        263
    x[88]     OBJ       -562
    x[89]     c2        48
    x[89]     c3        880
    x[89]     c4        960
    x[89]     c5        31
    x[89]     c6        938
    x[89]     c1        325
    x[89]     OBJ       -334
    x[90]     c2        291
    x[90]     c3        813
    x[90]     c4        932
    x[90]     c5        211
    x[90]     c6        301
    x[90]     c1        227
    x[90]     OBJ       -676
    x[91]     c2        984
    x[91]     c3        996
    x[91]     c4        378
    x[91]     c5        207
    x[91]     c6        325
    x[91]     c1        765
    x[91]     OBJ       -231
    x[92]     c2        620
    x[92]     c3        717
    x[92]     c4        34
    x[92]     c5        228
    x[92]     c6        915
    x[92]     c1        128
    x[92]     OBJ       -385
    x[93]     c2        627
    x[93]     c3        283
    x[93]     c4        515
    x[93]     c5        160
    x[93]     c6        302
    x[93]     c1        10
    x[93]     OBJ       -414
    x[94]     c2        571
    x[94]     c3        702
    x[94]     c4        946
    x[94]     c5        523
    x[94]     c6        472
    x[94]     c1        973
    x[94]     OBJ       -103
    x[95]     c2        720
    x[95]     c3        797
    x[95]     c4        226
    x[95]     c5        328
    x[95]     c6        659
    x[95]     c1        162
    x[95]     OBJ       -760
    x[96]     c2        393
    x[96]     c3        650
    x[96]     c4        805
    x[96]     c5        10
    x[96]     c6        595
    x[96]     c1        743
    x[96]     OBJ       231
    x[97]     c2        119
    x[97]     c3        280
    x[97]     c4        430
    x[97]     c5        707
    x[97]     c6        79
    x[97]     c1        208
    x[97]     OBJ       -331
    x[98]     c2        43
    x[98]     c3        344
    x[98]     c4        969
    x[98]     c5        423
    x[98]     c6        345
    x[98]     c1        223
    x[98]     OBJ       -617
    x[99]     c2        587
    x[99]     c3        592
    x[99]     c4        148
    x[99]     c5        324
    x[99]     c6        584
    x[99]     c1        981
    x[99]     OBJ       352
    x[100]    c2        448
    x[100]    c3        512
    x[100]    c4        14
    x[100]    c5        194
    x[100]    c6        31
    x[100]    c1        143
    x[100]    OBJ       -375
RHS
    rhs       c2        12440
    rhs       c3        12184
    rhs       c4        13875
    rhs       c5        11869
    rhs       c6        12243
    rhs       c1        1316
RANGES
BOUNDS
 LO bounds    ss[1]     0
 PL bounds    ss[1]
 MI bounds    s[1]
 UP bounds    s[1]      0
 MI bounds    s[2]
 UP bounds    s[2]      0
 MI bounds    s[3]
 UP bounds    s[3]      0
 MI bounds    s[4]
 UP bounds    s[4]      0
 MI bounds    s[5]
 UP bounds    s[5]      0
 BV bounds    x[1]
 BV bounds    x[2]
 BV bounds    x[3]
 BV bounds    x[4]
 BV bounds    x[5]
 BV bounds    x[6]
 BV bounds    x[7]
 BV bounds    x[8]
 BV bounds    x[9]
 BV bounds    x[10]
 BV bounds    x[11]
 BV bounds    x[12]
 BV bounds    x[13]
 BV bounds    x[14]
 BV bounds    x[15]
 BV bounds    x[16]
 BV bounds    x[17]
 BV bounds    x[18]
 BV bounds    x[19]
 BV bounds    x[20]
 BV bounds    x[21]
 BV bounds    x[22]
 BV bounds    x[23]
 BV bounds    x[24]
 BV bounds    x[25]
 BV bounds    x[26]
 BV bounds    x[27]
 BV bounds    x[28]
 BV bounds    x[29]
 BV bounds    x[30]
 BV bounds    x[31]
 BV bounds    x[32]
 BV bounds    x[33]
 BV bounds    x[34]
 BV bounds    x[35]
 BV bounds    x[36]
 BV bounds    x[37]
 BV bounds    x[38]
 BV bounds    x[39]
 BV bounds    x[40]
 BV bounds    x[41]
 BV bounds    x[42]
 BV bounds    x[43]
 BV bounds    x[44]
 BV bounds    x[45]
 BV bounds    x[46]
 BV bounds    x[47]
 BV bounds    x[48]
 BV bounds    x[49]
 BV bounds    x[50]
 BV bounds    x[51]
 BV bounds    x[52]
 BV bounds    x[53]
 BV bounds    x[54]
 BV bounds    x[55]
 BV bounds    x[56]
 BV bounds    x[57]
 BV bounds    x[58]
 BV bounds    x[59]
 BV bounds    x[60]
 BV bounds    x[61]
 BV bounds    x[62]
 BV bounds    x[63]
 BV bounds    x[64]
 BV bounds    x[65]
 BV bounds    x[66]
 BV bounds    x[67]
 BV bounds    x[68]
 BV bounds    x[69]
 BV bounds    x[70]
 BV bounds    x[71]
 BV bounds    x[72]
 BV bounds    x[73]
 BV bounds    x[74]
 BV bounds    x[75]
 BV bounds    x[76]
 BV bounds    x[77]
 BV bounds    x[78]
 BV bounds    x[79]
 BV bounds    x[80]
 BV bounds    x[81]
 BV bounds    x[82]
 BV bounds    x[83]
 BV bounds    x[84]
 BV bounds    x[85]
 BV bounds    x[86]
 BV bounds    x[87]
 BV bounds    x[88]
 BV bounds    x[89]
 BV bounds    x[90]
 BV bounds    x[91]
 BV bounds    x[92]
 BV bounds    x[93]
 BV bounds    x[94]
 BV bounds    x[95]
 BV bounds    x[96]
 BV bounds    x[97]
 BV bounds    x[98]
 BV bounds    x[99]
 BV bounds    x[100]
ENDATA
